outputs/case_298.model.txt
investment_in_real_estate = False
engage_in_derivative_transactions = True
deposit_amount_per_financial_institution = 2000000000
deposit_limit_approved_by_authority = 1
investment_in_securities = True
business_is_finance_lease = False
business_is_credit_card = False
investment_in_foreign_investments = True
business_is_securities_investment_trust = False
business_is_securities_investment_advisory = False
insurance_fund_total = 10000000000
business_is_bills_finance = False
investment_in_derivative_transactions = True
business_is_insurance = True
full_discretionary_investment_license_obtained = False
business_is_trust = False
investment_in_loans = True
derivative_transaction_regulations_followed = True
special_accounting_book_established = False
policyholder_full_discretionary_investment = False
investment_insurance_business = True
investment_in_other_approved_uses = False
business_is_other_approved_insurance_related = False
business_is_futures = False
exempt_from_specified_articles = False
business_is_securities = False
investment_in_insurance_related_business = True
investment_in_special_approved_projects = False
business_is_financial_holding = False
business_investment_type = True
business_is_bank = False
policy_sales_underwriting_claims_system = True
internal_handling_system_established = True
investment_bookkeeping_compliant = False
internal_control_and_audit_established = True
overdue_loan_management = True
reserve_provision_system = True
full_discretionary_investment_license_compliant = True
bad_debt_writeoff = True
investment_in_allowed_categories = True
derivative_transaction_compliant = True
special_accounting_book_exemption = True
collection_management = True
penalty = False
deposit_limit_per_financial_institution = 1
internal_control_established = True
audit_system_established = True
insurance_related_business_valid = True
asset_quality_evaluation_system = True